NAME : B-n57-k7
COMMENT : (Augerat et al, No of trucks: 7, Optimal value: 1153)
TYPE : CVRP
DIMENSION : 57
EDGE_WEIGHT_TYPE : EUC_2D 
CAPACITY : 100
NODE_COORD_SECTION 
 1 11 83
 2 37 61
 3 77 81
 4 35 21
 5 1 93
 6 21 39
 7 63 7
 8 97 95
 9 3 7
 10 5 3
 11 36 22
 12 64 10
 13 6 8
 14 24 40
 15 86 82
 16 68 14
 17 28 46
 18 10 8
 19 8 14
 20 10 10
 21 104 104
 22 38 24
 23 80 82
 24 22 46
 25 26 40
 26 4 10
 27 10 12
 28 26 44
 29 4 10
 30 4 98
 31 78 82
 32 64 8
 33 98 98
 34 24 40
 35 10 8
 36 8 96
 37 8 8
 38 84 90
 39 8 8
 40 86 86
 41 6 94
 42 10 10
 43 80 82
 44 102 96
 45 36 26
 46 44 28
 47 22 46
 48 100 100
 49 28 42
 50 30 40
 51 78 84
 52 10 4
 53 78 84
 54 6 8
 55 10 94
 56 40 66
 57 10 16
DEMAND_SECTION 
1 0 
2 2 
3 1 
4 3 
5 9 
6 13 
7 21 
8 6 
9 22 
10 10 
11 23 
12 2 
13 15 
14 10 
15 23 
16 8 
17 5 
18 14 
19 6 
20 15 
21 18 
22 15 
23 10 
24 17 
25 1 
26 1 
27 18 
28 7 
29 12 
30 9 
31 26 
32 60 
33 12 
34 17 
35 9 
36 7 
37 13 
38 24 
39 10 
40 17 
41 24 
42 25 
43 1 
44 20 
45 14 
46 6 
47 9 
48 11 
49 2 
50 11 
51 17 
52 3 
53 1 
54 8 
55 12 
56 9 
57 13 
DEPOT_SECTION 
 1  
 -1  
EOF 
